Please solve the following SAT Problem encoded in DIMACS format, only return a single solution assignment without explanations, if there is any: 
p cnf 10 50
5 2 6 0
-10 3 7 0
-10 -2 -1 0
7 -5 -10 0
-1 6 4 0
5 -7 2 0
-9 -5 2 0
6 5 1 0
-2 -1 3 0
4 -1 3 0
-5 4 2 0
6 3 5 0
4 6 -10 0
-10 -5 3 0
6 5 4 0
10 -9 2 0
-5 4 -10 0
-8 6 10 0
4 -10 5 0
10 4 -1 0
-10 7 -5 0
3 -5 -10 0
7 6 3 0
9 2 -8 0
9 2 7 0
-3 4 -10 0
5 6 -1 0
6 -1 -10 0
9 -10 7 0
2 3 4 0
-8 3 -5 0
-8 4 -10 0
3 10 6 0
4 -1 6 0
9 7 4 0
-10 6 7 0
3 9 -8 0
-6 -10 9 0
2 -10 5 0
-8 3 6 0
9 -1 8 0
-5 4 9 0
2 -1 8 0
2 4 -1 0
6 7 -8 0
4 2 -10 0
-10 -8 9 0
-3 4 -10 0
-9 -1 -5 0
7 6 -10 0

